data;
param n:=50;
param w:=1 -48 2 145 3 3 4 170 5 -61 6 -195 7 -21 8 -25 9 -89 10 -188 11 -104 12 142 13 -139 14 135 15 -26 16 -23 17 -102 18 -145 19 -129 20 109 21 -119 22 -8 23 38 24 69 25 -167 26 -8 27 40 28 58 29 199 30 208 31 104 32 1 33 -85 34 57 35 -223 36 185 37 -208 38 177 39 -126 40 -167 41 153 42 -184 43 -91 44 217 45 169 46 -101 47 213 48 -171 49 198 50 163;
